c 32_3_checker_5cl.cnf
c
c field = 32
c formula set type = 3_checker_5cl
c
p cnf 5 12
60 
64 
66 
-69 
-70 
61 
65 
67 
-68 
-71 
64 
66 
68 
-61 
-70 
65 
67 
69 
-60 
-71 
2 
32 
92 
-123 
-152 
3 
33 
93 
-122 
-153 
32 
92 
122 
-3 
-152 
33 
93 
123 
-2 
-153 
30 
94 
126 
-159 
-190 
31 
95 
127 
-158 
-191 
94 
126 
158 
-31 
-190 
95 
127 
159 
-30 
-191 
